====================================================================================================================
File name: 100_5_22_15.def
Creation date: Mon Nov 24 20:40:30 CET 2014
Website: http://imopse.ii.pwr.edu.pl/
Reference:
Myszkowski P. B., Skowronski M. E., Olech L., Oslizlo K.,
Hybrid Ant Colony Optimization in solving Multi-Skill Resource-Constrained Project Scheduling Problem,
Soft Computing, DOI: DOI 10.1007/s00500-014-1455-x
====================================================================================================================
General characteristics:
Tasks: 100
Resources: 5
Precedence relations: 22
Number of skill types: 14
====================================================================================================================
ResourceID 	 Salary 	 Skills
1	 	 	52.9	 	 Q3: 1 	  Q5: 1 	  Q10: 1 	  Q11: 1 	  Q2: 1 	  Q0: 1
2	 	 	51.2	 	 Q3: 2 	  Q12: 2 	  Q5: 0 	  Q9: 0 	  Q8: 0 	  Q6: 0
3	 	 	78.5	 	 Q9: 0 	  Q4: 2 	  Q11: 2 	  Q10: 0 	  Q5: 1 	  Q7: 1
4	 	 	38.5	 	 Q10: 0 	  Q4: 0 	  Q3: 1 	  Q7: 0 	  Q12: 2 	  Q5: 1
5	 	 	30.2	 	 Q12: 2 	  Q13: 1 	  Q2: 0 	  Q3: 1 	  Q1: 0 	  Q10: 0
====================================================================================================================
TaskID 	 Duration 	 Skill 	 Predecessor IDs
1	 	 	30	 Q3: 2
2	 	 	38	 Q7: 0
3	 	 	33	 Q10: 0
4	 	 	38	 Q9: 0
5	 	 	9	 Q7: 0
6	 	 	11	 Q10: 1
7	 	 	10	 Q0: 1
8	 	 	36	 Q7: 0
9	 	 	17	 Q0: 1
10	 	 	34	 Q3: 1
11	 	 	37	 Q2: 0
12	 	 	16	 Q11: 2
13	 	 	14	 Q3: 2
14	 	 	25	 Q8: 0
15	 	 	27	 Q12: 2
16	 	 	40	 Q2: 1
17	 	 	12	 Q9: 0
18	 	 	29	 Q3: 1
19	 	 	36	 Q4: 0
20	 	 	11	 Q13: 1
21	 	 	9	 Q0: 1
22	 	 	16	 Q11: 2
23	 	 	22	 Q11: 1
24	 	 	40	 Q0: 1
25	 	 	30	 Q3: 2
26	 	 	29	 Q3: 1
27	 	 	16	 Q2: 0
28	 	 	23	 Q5: 1
29	 	 	36	 Q11: 2
30	 	 	23	 Q4: 2
31	 	 	33	 Q5: 1
32	 	 	32	 Q8: 0
33	 	 	15	 Q8: 0
34	 	 	40	 Q8: 0
35	 	 	27	 Q11: 2	 	30
36	 	 	12	 Q11: 1
37	 	 	36	 Q12: 2	 	12
38	 	 	26	 Q5: 1
39	 	 	10	 Q11: 2
40	 	 	25	 Q0: 1	 	36
41	 	 	28	 Q2: 1
42	 	 	40	 Q7: 1
43	 	 	10	 Q0: 1
44	 	 	17	 Q10: 0
45	 	 	35	 Q5: 1
46	 	 	15	 Q8: 0
47	 	 	38	 Q11: 1	 	34
48	 	 	27	 Q4: 2
49	 	 	33	 Q9: 0
50	 	 	36	 Q5: 0
51	 	 	12	 Q10: 0
52	 	 	15	 Q13: 1
53	 	 	37	 Q2: 0
54	 	 	12	 Q0: 1
55	 	 	33	 Q1: 0	 	26	30
56	 	 	24	 Q4: 0
57	 	 	13	 Q7: 0
58	 	 	28	 Q2: 1
59	 	 	23	 Q10: 0
60	 	 	22	 Q10: 0	 	53
61	 	 	13	 Q2: 0
62	 	 	13	 Q0: 1
63	 	 	12	 Q5: 1
64	 	 	38	 Q2: 1
65	 	 	23	 Q2: 1
66	 	 	29	 Q2: 0
67	 	 	27	 Q2: 1
68	 	 	11	 Q3: 1
69	 	 	29	 Q3: 1
70	 	 	12	 Q2: 1	 	61
71	 	 	25	 Q6: 0
72	 	 	10	 Q2: 1
73	 	 	21	 Q7: 0
74	 	 	36	 Q8: 0	 	68
75	 	 	14	 Q5: 0
76	 	 	35	 Q6: 0
77	 	 	23	 Q11: 1	 	76
78	 	 	31	 Q11: 1
79	 	 	13	 Q5: 0	 	7
80	 	 	32	 Q9: 0
81	 	 	20	 Q5: 1
82	 	 	9	 Q2: 1
83	 	 	14	 Q7: 0	 	19	43	22	60
84	 	 	34	 Q9: 0
85	 	 	25	 Q5: 0	 	36
86	 	 	13	 Q3: 2
87	 	 	39	 Q13: 1	 	61
88	 	 	29	 Q2: 0
89	 	 	26	 Q6: 0
90	 	 	17	 Q7: 1
91	 	 	11	 Q5: 0
92	 	 	29	 Q7: 1	 	64
93	 	 	28	 Q10: 0	 	41
94	 	 	22	 Q10: 0
95	 	 	20	 Q1: 0
96	 	 	39	 Q11: 1	 	82	39
97	 	 	10	 Q1: 0	 	55
98	 	 	36	 Q2: 0
99	 	 	31	 Q11: 1
100	 	 	19	 Q10: 0
====================================================================================================================
